10J3M/DAT/10J3MUTL-18.dat
10 3
29.1076 29.1076
18.7495 18.7495
28.1035 28.1035
27.9953 27.9953
34.1614 34.1614
10.5794 10.5794
46.8485 46.8485
39.2363 39.2363
33.7344 33.7344
18.7901 18.7901
71.8265