10J3M/SOL/10J3MUTL-18.sol
solution status: optimal solution found
objective value:                              57.0491
x#1#1                              0.0920791394367604 	(obj:0)
x#1#3                                0.90792086056324 	(obj:0)
x#2#1                                               1 	(obj:0)
x#3#2                                               1 	(obj:0)
x#4#1                                               1 	(obj:0)
x#5#1                                               1 	(obj:0)
x#6#2                               0.250921441686068 	(obj:0)
x#7#3                               0.472068265678626 	(obj:0)
x#8#2                                               1 	(obj:0)
x#9#2                                               1 	(obj:0)
x#10#1                                              1 	(obj:0)
z                                             57.0491 	(obj:1)
